\Generated by Cardinal Operations

Maximize
   20.75 x_1 + 16.75 x_2 + 12.75 x_3 + 12 x_4 + 23.65 x_5 + 20.25 x_6 
   + 16.25 x_7 + 12.25 x_8 + 20.75 x_9 + 16.75 x_10 + 12.75 x_11 
   + 20.75 x_12 + 16.75 x_13 + 12.75 x_14 + 20.75 x_15 + 16.75 x_16 
   + 12.75 x_17 + 20.5 x_18 + 16 x_19 + 12 x_20 + 18.5 x_21 + 17.95 x_22 
   + 14.75 x_23 + 20.25 x_24 + 16 x_25 + 12 x_26 + 16.5 x_27 + 13.25 x_28 
   + 10.5 x_29 + 20.5 x_30 + 16 x_31 + 12 x_32 + 20.75 x_33 + 16.5 x_34 
   + 12.5 x_35 + 21 x_36 + 16.75 x_37 + 12.75 x_38 + 20.25 x_39 + 16 x_40 
   + 12 x_41 + 20.25 x_42 + 16 x_43 + 12 x_44 + 20.5 x_45 + 16 x_46 
   + 12 x_47 + 17.5 x_48 + 14.5 x_49 + 11 x_50 + 15.25 x_51 + 12.5 x_52 
   + 9.75 x_53 + 20.75 x_54 + 16.5 x_55 + 12.5 x_56 + 20.75 x_57 
   + 16.5 x_58 + 12.5 x_59 + 20.25 x_60 + 16.25 x_61 + 12.25 x_62 
   + 20.75 x_63 + 16.5 x_64 + 12.5 x_65 + 20.75 x_66 + 16.75 x_67 
   + 12.75 x_68 + 20.75 x_69 + 16.5 x_70 + 12.5 x_71 + 20.75 x_72 
   + 16.5 x_73 + 12.5 x_74 + 20.25 x_75 + 16 x_76 + 12 x_77 + 20.75 x_78 
   + 16.5 x_79 + 12.5 x_80 + 20.75 x_81 + 16.75 x_82 + 12.75 x_83 
   + 20.5 x_84 + 16 x_85 + 12 x_86 + 25.5 x_87 + 35.95 x_88 + 20.25 x_89 
   + 16 x_90 + 12 x_91 + 16.5 x_92 + 12.5 x_93 + 21 x_94 + 16.75 x_95 
   + 12.75 x_96 + 20.25 x_97 + 16 x_98 + 20.75 x_99 + 16.5 x_100 
Subject To
 inventory_constraint: x_1 <= 9920
 x_2 <= 9560
 x_3 <= 4840
 x_4 <= 19140
 x_5 <= 4900
 x_6 <= 2760
 x_7 <= 5620
 x_8 <= 990
 x_9 <= 9270
 x_10 <= 9440
 x_11 <= 4990
 x_12 <= 1880
 x_13 <= 7030
 x_14 <= 960
 x_15 <= 3990
 x_16 <= 2760
 x_17 <= 2980
 x_18 <= 4730
 x_19 <= 11810
 x_20 <= 7990
 x_21 <= 14090
 x_22 <= 13160
 x_23 <= 5860
 x_24 <= 950
 x_25 <= 3020
 x_26 <= 6000
 x_27 <= 9190
 x_28 <= 4830
 x_29 <= 10200
 x_30 <= 7320
 x_31 <= 4040
 x_32 <= 3020
 x_33 <= 7470
 x_34 <= 9410
 x_35 <= 1960
 x_36 <= 1900
 x_37 <= 4860
 x_38 <= 3050
 x_39 <= 3700
 x_40 <= 2750
 x_41 <= 2890
 x_42 <= 8670
 x_43 <= 4550
 x_44 <= 1620
 x_45 <= 5660
 x_46 <= 4270
 x_47 <= 4710
 x_48 <= 3840
 x_49 <= 3970
 x_50 <= 5780
 x_51 <= 7280
 x_52 <= 9390
 x_53 <= 7510
 x_54 <= 6960
 x_55 <= 4280
 x_56 <= 3220
 x_57 <= 4350
 x_58 <= 5980
 x_59 <= 4240
 x_60 <= 6130
 x_61 <= 5740
 x_62 <= 7510
 x_63 <= 4050
 x_64 <= 2680
 x_65 <= 2880
 x_66 <= 10160
 x_67 <= 5340
 x_68 <= 3670
 x_69 <= 11090
 x_70 <= 4080
 x_71 <= 4070
 x_72 <= 2840
 x_73 <= 2820
 x_74 <= 4040
 x_75 <= 4450
 x_76 <= 5620
 x_77 <= 4390
 x_78 <= 2830
 x_79 <= 2670
 x_80 <= 4000
 x_81 <= 14100
 x_82 <= 4810
 x_83 <= 4800
 x_84 <= 2550
 x_85 <= 2810
 x_86 <= 3040
 x_87 <= 5520
 x_88 <= 280
 x_89 <= 4270
 x_90 <= 6350
 x_91 <= 4640
 x_92 <= 2830
 x_93 <= 2670
 x_94 <= 4000
 x_95 <= 2680
 x_96 <= 2880
 x_97 <= 10160
 x_98 <= 2820
 x_99 <= 4040
 x_100 <= 4450
 demand_constraint: x_1 <= 1960
 x_2 <= 1884
 x_3 <= 963
 x_4 <= 3729
 x_5 <= 970
 x_6 <= 550
 x_7 <= 1116
 x_8 <= 198
 x_9 <= 1823
 x_10 <= 1858
 x_11 <= 992
 x_12 <= 375
 x_13 <= 1400
 x_14 <= 192
 x_15 <= 791
 x_16 <= 550
 x_17 <= 593
 x_18 <= 944
 x_19 <= 2340
 x_20 <= 1586
 x_21 <= 2769
 x_22 <= 2589
 x_23 <= 1163
 x_24 <= 189
 x_25 <= 602
 x_26 <= 1193
 x_27 <= 1815
 x_28 <= 956
 x_29 <= 2021
 x_30 <= 1447
 x_31 <= 803
 x_32 <= 602
 x_33 <= 1482
 x_34 <= 1861
 x_35 <= 390
 x_36 <= 380
 x_37 <= 969
 x_38 <= 607
 x_39 <= 734
 x_40 <= 546
 x_41 <= 577
 x_42 <= 1711
 x_43 <= 907
 x_44 <= 322
 x_45 <= 1123
 x_46 <= 853
 x_47 <= 939
 x_48 <= 765
 x_49 <= 788
 x_50 <= 1148
 x_51 <= 1440
 x_52 <= 1857
 x_53 <= 1490
 x_54 <= 1376
 x_55 <= 852
 x_56 <= 640
 x_57 <= 858
 x_58 <= 1183
 x_59 <= 844
 x_60 <= 1209
 x_61 <= 1135
 x_62 <= 1482
 x_63 <= 806
 x_64 <= 536
 x_65 <= 576
 x_66 <= 2009
 x_67 <= 1060
 x_68 <= 733
 x_69 <= 2198
 x_70 <= 808
 x_71 <= 807
 x_72 <= 563
 x_73 <= 563
 x_74 <= 801
 x_75 <= 882
 x_76 <= 1120
 x_77 <= 876
 x_78 <= 563
 x_79 <= 533
 x_80 <= 794
 x_81 <= 2776
 x_82 <= 955
 x_83 <= 956
 x_84 <= 510
 x_85 <= 560
 x_86 <= 604
 x_87 <= 1096
 x_88 <= 56
 x_89 <= 850
 x_90 <= 1265
 x_91 <= 921
 x_92 <= 733
 x_93 <= 2198
 x_94 <= 808
 x_95 <= 563
 x_96 <= 801
 x_97 <= 882
 x_98 <= 1120
 x_99 <= 794
 x_100 <= 2776
Generals
 x_1  x_2  x_3  x_4  x_5  x_6  x_7  x_8  x_9  x_10  x_11  x_12  x_13  x_14  
 x_15  x_16  x_17  x_18  x_19  x_20  x_21  x_22  x_23  x_24  x_25  x_26  
 x_27  x_28  x_29  x_30  x_31  x_32  x_33  x_34  x_35  x_36  x_37  x_38  
 x_39  x_40  x_41  x_42  x_43  x_44  x_45  x_46  x_47  x_48  x_49  x_50  
 x_51  x_52  x_53  x_54  x_55  x_56  x_57  x_58  x_59  x_60  x_61  x_62  
 x_63  x_64  x_65  x_66  x_67  x_68  x_69  x_70  x_71  x_72  x_73  x_74  
 x_75  x_76  x_77  x_78  x_79  x_80  x_81  x_82  x_83  x_84  x_85  x_86  
 x_87  x_88  x_89  x_90  x_91  x_92  x_93  x_94  x_95  x_96  x_97  x_98  
 x_99  x_100  
END

